1	24
2	3
3	1
4	12
5	4
6	17
7	14
8	23
9	8
10	15
11	7
12	20
13	5
14	29
15	13
16	14
17	16
18	17
19	11
20	16
21	6
22	20
23	12
24	7
25	2
26	29
27	4
28	4
29	25
30	19
31	22
32	11
33	23
34	13
35	16
36	9
37	12
38	15
39	3
40	5
41	21
42	29
43	4
44	9
45	1
46	9
47	17
48	11
49	20
50	14
51	2